c weights 0.2 0.8 0.3 0.7 1 1 0.1 0.9 0.4 0.6 0.2 0.8 0.3 0.7 1 1 1 1 1 1 1 1 0.4 0.6 1 1 0.1 0.9 1 1 0.4 0.6 0.1 0.9 0.4 0.6 1 1 1 1 1 1 1 1 0.1 0.9 1 1 0.2 0.8 0.3 0.7 1 1 1 1
p cnf 28 46
3 -1 -2 0
-3 1 0
-3 2 0
8 -6 -7 0
-8 6 0
-8 7 0
9 -8 -5 0
-9 8 0
-9 5 0
10 -9 -4 0
-10 9 0
-10 4 0
-11 10 3 0
11 -10 0
11 -3 0
13 -11 -12 0
-13 11 0
-13 12 0
15 -13 -14 0
-15 13 0
-15 14 0
19 -18 -3 0
-19 18 0
-19 3 0
20 -17 -19 0
-20 17 0
-20 19 0
-21 8 20 0
21 -8 0
21 -20 0
22 -16 -21 0
-22 16 0
-22 21 0
24 -22 -23 0
-24 22 0
-24 23 0
27 -25 -26 0
-27 25 0
-27 26 0
-28 24 27 15 0
28 -24 0
28 -27 0
28 -15 0
14 0
23 0
28 0